(set-logic QF_NIA)
(set-info :source |
     Constraint systems stating that a matrix interpretation is
     compatible with a rewriting system (weakly compatible with
     all rules, strictly compatible with at least one).

     Contributed by Johannes Waldmann at HTKW Leipzig.
   |)
(set-info :smt-lib-version 2.0)
(set-info :category "crafted")
(set-info :status sat)
(declare-fun n0 () Int)
(assert (>= n0 0))
(declare-fun n1 () Int)
(assert (>= n1 0))
(declare-fun n2 () Int)
(assert (>= n2 0))
(declare-fun n3 () Int)
(assert (>= n3 0))
(declare-fun n4 () Int)
(assert (>= n4 0))
(declare-fun n5 () Int)
(assert (>= n5 0))
(declare-fun n6 () Int)
(assert (>= n6 0))
(declare-fun n7 () Int)
(assert (>= n7 0))
(declare-fun n8 () Int)
(assert (>= n8 0))
(declare-fun n9 () Int)
(assert (>= n9 0))
(declare-fun n10 () Int)
(assert (>= n10 0))
(declare-fun n11 () Int)
(assert (>= n11 0))
(declare-fun n12 () Int)
(assert (>= n12 0))
(declare-fun n13 () Int)
(assert (>= n13 0))
(declare-fun n14 () Int)
(assert (>= n14 0))
(declare-fun n15 () Int)
(assert (>= n15 0))
(declare-fun n16 () Int)
(assert (>= n16 0))
(declare-fun n17 () Int)
(assert (>= n17 0))
(declare-fun n18 () Int)
(assert (>= n18 0))
(declare-fun n19 () Int)
(assert (>= n19 0))
(declare-fun n20 () Int)
(assert (>= n20 0))
(declare-fun n21 () Int)
(assert (>= n21 0))
(declare-fun n22 () Int)
(assert (>= n22 0))
(declare-fun n23 () Int)
(assert (>= n23 0))
(declare-fun n24 () Int)
(assert (>= n24 0))
(declare-fun n25 () Int)
(assert (>= n25 0))
(declare-fun n26 () Int)
(assert (>= n26 0))
(declare-fun n27 () Int)
(assert (>= n27 0))
(declare-fun n28 () Int)
(assert (>= n28 0))
(declare-fun n29 () Int)
(assert (>= n29 0))
(declare-fun n30 () Int)
(assert (>= n30 0))
(declare-fun n31 () Int)
(assert (>= n31 0))
(declare-fun n32 () Int)
(assert (>= n32 0))
(declare-fun n33 () Int)
(assert (>= n33 0))
(declare-fun n34 () Int)
(assert (>= n34 0))
(declare-fun n35 () Int)
(assert (>= n35 0))
(declare-fun n36 () Int)
(assert (>= n36 0))
(declare-fun n37 () Int)
(assert (>= n37 0))
(declare-fun n38 () Int)
(assert (>= n38 0))
(declare-fun n39 () Int)
(assert (>= n39 0))
(declare-fun n40 () Int)
(assert (>= n40 0))
(declare-fun n41 () Int)
(assert (>= n41 0))
(declare-fun n42 () Int)
(assert (>= n42 0))
(declare-fun n43 () Int)
(assert (>= n43 0))
(declare-fun n44 () Int)
(assert (>= n44 0))
(declare-fun n45 () Int)
(assert (>= n45 0))
(declare-fun n46 () Int)
(assert (>= n46 0))
(declare-fun n47 () Int)
(assert (>= n47 0))
(declare-fun n48 () Int)
(assert (= n48 (* n15 n24)))
(declare-fun n49 () Int)
(assert (= n49 (* n16 n25)))
(declare-fun n50 () Int)
(assert (= n50 (* n17 n26)))
(declare-fun n51 () Int)
(assert (= n51 (+ n49 n50)))
(declare-fun n52 () Int)
(assert (= n52 (* n18 n24)))
(declare-fun n53 () Int)
(assert (= n53 (* n19 n25)))
(declare-fun n54 () Int)
(assert (= n54 (* n20 n26)))
(declare-fun n55 () Int)
(assert (= n55 (+ n53 n54)))
(declare-fun n56 () Int)
(assert (= n56 (* n21 n24)))
(declare-fun n57 () Int)
(assert (= n57 (* n22 n25)))
(declare-fun n58 () Int)
(assert (= n58 (* n23 n26)))
(declare-fun n59 () Int)
(assert (= n59 (+ n57 n58)))
(declare-fun n60 () Int)
(assert (= n60 (+ n48 n51)))
(declare-fun n61 () Int)
(assert (= n61 (+ n52 n55)))
(declare-fun n62 () Int)
(assert (= n62 (+ n56 n59)))
(declare-fun n63 () Int)
(assert (= n63 (+ n12 n60)))
(declare-fun n64 () Int)
(assert (= n64 (+ n13 n61)))
(declare-fun n65 () Int)
(assert (= n65 (+ n14 n62)))
(declare-fun n66 () Int)
(assert (= n66 (* n15 n27)))
(declare-fun n67 () Int)
(assert (= n67 (* n16 n30)))
(declare-fun n68 () Int)
(assert (= n68 (* n17 n33)))
(declare-fun n69 () Int)
(assert (= n69 (+ n67 n68)))
(declare-fun n70 () Int)
(assert (= n70 (* n15 n28)))
(declare-fun n71 () Int)
(assert (= n71 (* n16 n31)))
(declare-fun n72 () Int)
(assert (= n72 (* n17 n34)))
(declare-fun n73 () Int)
(assert (= n73 (+ n71 n72)))
(declare-fun n74 () Int)
(assert (= n74 (* n15 n29)))
(declare-fun n75 () Int)
(assert (= n75 (* n16 n32)))
(declare-fun n76 () Int)
(assert (= n76 (* n17 n35)))
(declare-fun n77 () Int)
(assert (= n77 (+ n75 n76)))
(declare-fun n78 () Int)
(assert (= n78 (* n18 n27)))
(declare-fun n79 () Int)
(assert (= n79 (* n19 n30)))
(declare-fun n80 () Int)
(assert (= n80 (* n20 n33)))
(declare-fun n81 () Int)
(assert (= n81 (+ n79 n80)))
(declare-fun n82 () Int)
(assert (= n82 (* n18 n28)))
(declare-fun n83 () Int)
(assert (= n83 (* n19 n31)))
(declare-fun n84 () Int)
(assert (= n84 (* n20 n34)))
(declare-fun n85 () Int)
(assert (= n85 (+ n83 n84)))
(declare-fun n86 () Int)
(assert (= n86 (* n18 n29)))
(declare-fun n87 () Int)
(assert (= n87 (* n19 n32)))
(declare-fun n88 () Int)
(assert (= n88 (* n20 n35)))
(declare-fun n89 () Int)
(assert (= n89 (+ n87 n88)))
(declare-fun n90 () Int)
(assert (= n90 (* n21 n27)))
(declare-fun n91 () Int)
(assert (= n91 (* n22 n30)))
(declare-fun n92 () Int)
(assert (= n92 (* n23 n33)))
(declare-fun n93 () Int)
(assert (= n93 (+ n91 n92)))
(declare-fun n94 () Int)
(assert (= n94 (* n21 n28)))
(declare-fun n95 () Int)
(assert (= n95 (* n22 n31)))
(declare-fun n96 () Int)
(assert (= n96 (* n23 n34)))
(declare-fun n97 () Int)
(assert (= n97 (+ n95 n96)))
(declare-fun n98 () Int)
(assert (= n98 (* n21 n29)))
(declare-fun n99 () Int)
(assert (= n99 (* n22 n32)))
(declare-fun n100 () Int)
(assert (= n100 (* n23 n35)))
(declare-fun n101 () Int)
(assert (= n101 (+ n99 n100)))
(declare-fun n102 () Int)
(assert (= n102 (+ n66 n69)))
(declare-fun n103 () Int)
(assert (= n103 (+ n70 n73)))
(declare-fun n104 () Int)
(assert (= n104 (+ n74 n77)))
(declare-fun n105 () Int)
(assert (= n105 (+ n78 n81)))
(declare-fun n106 () Int)
(assert (= n106 (+ n82 n85)))
(declare-fun n107 () Int)
(assert (= n107 (+ n86 n89)))
(declare-fun n108 () Int)
(assert (= n108 (+ n90 n93)))
(declare-fun n109 () Int)
(assert (= n109 (+ n94 n97)))
(declare-fun n110 () Int)
(assert (= n110 (+ n98 n101)))
(declare-fun n111 () Int)
(assert (= n111 (* n39 n12)))
(declare-fun n112 () Int)
(assert (= n112 (* n40 n13)))
(declare-fun n113 () Int)
(assert (= n113 (* n41 n14)))
(declare-fun n114 () Int)
(assert (= n114 (+ n112 n113)))
(declare-fun n115 () Int)
(assert (= n115 (* n42 n12)))
(declare-fun n116 () Int)
(assert (= n116 (* n43 n13)))
(declare-fun n117 () Int)
(assert (= n117 (* n44 n14)))
(declare-fun n118 () Int)
(assert (= n118 (+ n116 n117)))
(declare-fun n119 () Int)
(assert (= n119 (* n45 n12)))
(declare-fun n120 () Int)
(assert (= n120 (* n46 n13)))
(declare-fun n121 () Int)
(assert (= n121 (* n47 n14)))
(declare-fun n122 () Int)
(assert (= n122 (+ n120 n121)))
(declare-fun n123 () Int)
(assert (= n123 (+ n111 n114)))
(declare-fun n124 () Int)
(assert (= n124 (+ n115 n118)))
(declare-fun n125 () Int)
(assert (= n125 (+ n119 n122)))
(declare-fun n126 () Int)
(assert (= n126 (+ n36 n123)))
(declare-fun n127 () Int)
(assert (= n127 (+ n37 n124)))
(declare-fun n128 () Int)
(assert (= n128 (+ n38 n125)))
(declare-fun n129 () Int)
(assert (= n129 (* n39 n15)))
(declare-fun n130 () Int)
(assert (= n130 (* n40 n18)))
(declare-fun n131 () Int)
(assert (= n131 (* n41 n21)))
(declare-fun n132 () Int)
(assert (= n132 (+ n130 n131)))
(declare-fun n133 () Int)
(assert (= n133 (* n39 n16)))
(declare-fun n134 () Int)
(assert (= n134 (* n40 n19)))
(declare-fun n135 () Int)
(assert (= n135 (* n41 n22)))
(declare-fun n136 () Int)
(assert (= n136 (+ n134 n135)))
(declare-fun n137 () Int)
(assert (= n137 (* n39 n17)))
(declare-fun n138 () Int)
(assert (= n138 (* n40 n20)))
(declare-fun n139 () Int)
(assert (= n139 (* n41 n23)))
(declare-fun n140 () Int)
(assert (= n140 (+ n138 n139)))
(declare-fun n141 () Int)
(assert (= n141 (* n42 n15)))
(declare-fun n142 () Int)
(assert (= n142 (* n43 n18)))
(declare-fun n143 () Int)
(assert (= n143 (* n44 n21)))
(declare-fun n144 () Int)
(assert (= n144 (+ n142 n143)))
(declare-fun n145 () Int)
(assert (= n145 (* n42 n16)))
(declare-fun n146 () Int)
(assert (= n146 (* n43 n19)))
(declare-fun n147 () Int)
(assert (= n147 (* n44 n22)))
(declare-fun n148 () Int)
(assert (= n148 (+ n146 n147)))
(declare-fun n149 () Int)
(assert (= n149 (* n42 n17)))
(declare-fun n150 () Int)
(assert (= n150 (* n43 n20)))
(declare-fun n151 () Int)
(assert (= n151 (* n44 n23)))
(declare-fun n152 () Int)
(assert (= n152 (+ n150 n151)))
(declare-fun n153 () Int)
(assert (= n153 (* n45 n15)))
(declare-fun n154 () Int)
(assert (= n154 (* n46 n18)))
(declare-fun n155 () Int)
(assert (= n155 (* n47 n21)))
(declare-fun n156 () Int)
(assert (= n156 (+ n154 n155)))
(declare-fun n157 () Int)
(assert (= n157 (* n45 n16)))
(declare-fun n158 () Int)
(assert (= n158 (* n46 n19)))
(declare-fun n159 () Int)
(assert (= n159 (* n47 n22)))
(declare-fun n160 () Int)
(assert (= n160 (+ n158 n159)))
(declare-fun n161 () Int)
(assert (= n161 (* n45 n17)))
(declare-fun n162 () Int)
(assert (= n162 (* n46 n20)))
(declare-fun n163 () Int)
(assert (= n163 (* n47 n23)))
(declare-fun n164 () Int)
(assert (= n164 (+ n162 n163)))
(declare-fun n165 () Int)
(assert (= n165 (+ n129 n132)))
(declare-fun n166 () Int)
(assert (= n166 (+ n133 n136)))
(declare-fun n167 () Int)
(assert (= n167 (+ n137 n140)))
(declare-fun n168 () Int)
(assert (= n168 (+ n141 n144)))
(declare-fun n169 () Int)
(assert (= n169 (+ n145 n148)))
(declare-fun n170 () Int)
(assert (= n170 (+ n149 n152)))
(declare-fun n171 () Int)
(assert (= n171 (+ n153 n156)))
(declare-fun n172 () Int)
(assert (= n172 (+ n157 n160)))
(declare-fun n173 () Int)
(assert (= n173 (+ n161 n164)))
(declare-fun n174 () Int)
(assert (= n174 (* n39 n63)))
(declare-fun n175 () Int)
(assert (= n175 (* n40 n64)))
(declare-fun n176 () Int)
(assert (= n176 (* n41 n65)))
(declare-fun n177 () Int)
(assert (= n177 (+ n175 n176)))
(declare-fun n178 () Int)
(assert (= n178 (* n42 n63)))
(declare-fun n179 () Int)
(assert (= n179 (* n43 n64)))
(declare-fun n180 () Int)
(assert (= n180 (* n44 n65)))
(declare-fun n181 () Int)
(assert (= n181 (+ n179 n180)))
(declare-fun n182 () Int)
(assert (= n182 (* n45 n63)))
(declare-fun n183 () Int)
(assert (= n183 (* n46 n64)))
(declare-fun n184 () Int)
(assert (= n184 (* n47 n65)))
(declare-fun n185 () Int)
(assert (= n185 (+ n183 n184)))
(declare-fun n186 () Int)
(assert (= n186 (+ n174 n177)))
(declare-fun n187 () Int)
(assert (= n187 (+ n178 n181)))
(declare-fun n188 () Int)
(assert (= n188 (+ n182 n185)))
(declare-fun n189 () Int)
(assert (= n189 (+ n36 n186)))
(declare-fun n190 () Int)
(assert (= n190 (+ n37 n187)))
(declare-fun n191 () Int)
(assert (= n191 (+ n38 n188)))
(declare-fun n192 () Int)
(assert (= n192 (* n39 n102)))
(declare-fun n193 () Int)
(assert (= n193 (* n40 n105)))
(declare-fun n194 () Int)
(assert (= n194 (* n41 n108)))
(declare-fun n195 () Int)
(assert (= n195 (+ n193 n194)))
(declare-fun n196 () Int)
(assert (= n196 (* n39 n103)))
(declare-fun n197 () Int)
(assert (= n197 (* n40 n106)))
(declare-fun n198 () Int)
(assert (= n198 (* n41 n109)))
(declare-fun n199 () Int)
(assert (= n199 (+ n197 n198)))
(declare-fun n200 () Int)
(assert (= n200 (* n39 n104)))
(declare-fun n201 () Int)
(assert (= n201 (* n40 n107)))
(declare-fun n202 () Int)
(assert (= n202 (* n41 n110)))
(declare-fun n203 () Int)
(assert (= n203 (+ n201 n202)))
(declare-fun n204 () Int)
(assert (= n204 (* n42 n102)))
(declare-fun n205 () Int)
(assert (= n205 (* n43 n105)))
(declare-fun n206 () Int)
(assert (= n206 (* n44 n108)))
(declare-fun n207 () Int)
(assert (= n207 (+ n205 n206)))
(declare-fun n208 () Int)
(assert (= n208 (* n42 n103)))
(declare-fun n209 () Int)
(assert (= n209 (* n43 n106)))
(declare-fun n210 () Int)
(assert (= n210 (* n44 n109)))
(declare-fun n211 () Int)
(assert (= n211 (+ n209 n210)))
(declare-fun n212 () Int)
(assert (= n212 (* n42 n104)))
(declare-fun n213 () Int)
(assert (= n213 (* n43 n107)))
(declare-fun n214 () Int)
(assert (= n214 (* n44 n110)))
(declare-fun n215 () Int)
(assert (= n215 (+ n213 n214)))
(declare-fun n216 () Int)
(assert (= n216 (* n45 n102)))
(declare-fun n217 () Int)
(assert (= n217 (* n46 n105)))
(declare-fun n218 () Int)
(assert (= n218 (* n47 n108)))
(declare-fun n219 () Int)
(assert (= n219 (+ n217 n218)))
(declare-fun n220 () Int)
(assert (= n220 (* n45 n103)))
(declare-fun n221 () Int)
(assert (= n221 (* n46 n106)))
(declare-fun n222 () Int)
(assert (= n222 (* n47 n109)))
(declare-fun n223 () Int)
(assert (= n223 (+ n221 n222)))
(declare-fun n224 () Int)
(assert (= n224 (* n45 n104)))
(declare-fun n225 () Int)
(assert (= n225 (* n46 n107)))
(declare-fun n226 () Int)
(assert (= n226 (* n47 n110)))
(declare-fun n227 () Int)
(assert (= n227 (+ n225 n226)))
(declare-fun n228 () Int)
(assert (= n228 (+ n192 n195)))
(declare-fun n229 () Int)
(assert (= n229 (+ n196 n199)))
(declare-fun n230 () Int)
(assert (= n230 (+ n200 n203)))
(declare-fun n231 () Int)
(assert (= n231 (+ n204 n207)))
(declare-fun n232 () Int)
(assert (= n232 (+ n208 n211)))
(declare-fun n233 () Int)
(assert (= n233 (+ n212 n215)))
(declare-fun n234 () Int)
(assert (= n234 (+ n216 n219)))
(declare-fun n235 () Int)
(assert (= n235 (+ n220 n223)))
(declare-fun n236 () Int)
(assert (= n236 (+ n224 n227)))
(declare-fun n237 () Int)
(assert (= n237 (* n102 n24)))
(declare-fun n238 () Int)
(assert (= n238 (* n103 n25)))
(declare-fun n239 () Int)
(assert (= n239 (* n104 n26)))
(declare-fun n240 () Int)
(assert (= n240 (+ n238 n239)))
(declare-fun n241 () Int)
(assert (= n241 (* n105 n24)))
(declare-fun n242 () Int)
(assert (= n242 (* n106 n25)))
(declare-fun n243 () Int)
(assert (= n243 (* n107 n26)))
(declare-fun n244 () Int)
(assert (= n244 (+ n242 n243)))
(declare-fun n245 () Int)
(assert (= n245 (* n108 n24)))
(declare-fun n246 () Int)
(assert (= n246 (* n109 n25)))
(declare-fun n247 () Int)
(assert (= n247 (* n110 n26)))
(declare-fun n248 () Int)
(assert (= n248 (+ n246 n247)))
(declare-fun n249 () Int)
(assert (= n249 (+ n237 n240)))
(declare-fun n250 () Int)
(assert (= n250 (+ n241 n244)))
(declare-fun n251 () Int)
(assert (= n251 (+ n245 n248)))
(declare-fun n252 () Int)
(assert (= n252 (+ n63 n249)))
(declare-fun n253 () Int)
(assert (= n253 (+ n64 n250)))
(declare-fun n254 () Int)
(assert (= n254 (+ n65 n251)))
(declare-fun n255 () Int)
(assert (= n255 (* n102 n27)))
(declare-fun n256 () Int)
(assert (= n256 (* n103 n30)))
(declare-fun n257 () Int)
(assert (= n257 (* n104 n33)))
(declare-fun n258 () Int)
(assert (= n258 (+ n256 n257)))
(declare-fun n259 () Int)
(assert (= n259 (* n102 n28)))
(declare-fun n260 () Int)
(assert (= n260 (* n103 n31)))
(declare-fun n261 () Int)
(assert (= n261 (* n104 n34)))
(declare-fun n262 () Int)
(assert (= n262 (+ n260 n261)))
(declare-fun n263 () Int)
(assert (= n263 (* n102 n29)))
(declare-fun n264 () Int)
(assert (= n264 (* n103 n32)))
(declare-fun n265 () Int)
(assert (= n265 (* n104 n35)))
(declare-fun n266 () Int)
(assert (= n266 (+ n264 n265)))
(declare-fun n267 () Int)
(assert (= n267 (* n105 n27)))
(declare-fun n268 () Int)
(assert (= n268 (* n106 n30)))
(declare-fun n269 () Int)
(assert (= n269 (* n107 n33)))
(declare-fun n270 () Int)
(assert (= n270 (+ n268 n269)))
(declare-fun n271 () Int)
(assert (= n271 (* n105 n28)))
(declare-fun n272 () Int)
(assert (= n272 (* n106 n31)))
(declare-fun n273 () Int)
(assert (= n273 (* n107 n34)))
(declare-fun n274 () Int)
(assert (= n274 (+ n272 n273)))
(declare-fun n275 () Int)
(assert (= n275 (* n105 n29)))
(declare-fun n276 () Int)
(assert (= n276 (* n106 n32)))
(declare-fun n277 () Int)
(assert (= n277 (* n107 n35)))
(declare-fun n278 () Int)
(assert (= n278 (+ n276 n277)))
(declare-fun n279 () Int)
(assert (= n279 (* n108 n27)))
(declare-fun n280 () Int)
(assert (= n280 (* n109 n30)))
(declare-fun n281 () Int)
(assert (= n281 (* n110 n33)))
(declare-fun n282 () Int)
(assert (= n282 (+ n280 n281)))
(declare-fun n283 () Int)
(assert (= n283 (* n108 n28)))
(declare-fun n284 () Int)
(assert (= n284 (* n109 n31)))
(declare-fun n285 () Int)
(assert (= n285 (* n110 n34)))
(declare-fun n286 () Int)
(assert (= n286 (+ n284 n285)))
(declare-fun n287 () Int)
(assert (= n287 (* n108 n29)))
(declare-fun n288 () Int)
(assert (= n288 (* n109 n32)))
(declare-fun n289 () Int)
(assert (= n289 (* n110 n35)))
(declare-fun n290 () Int)
(assert (= n290 (+ n288 n289)))
(declare-fun n291 () Int)
(assert (= n291 (+ n255 n258)))
(declare-fun n292 () Int)
(assert (= n292 (+ n259 n262)))
(declare-fun n293 () Int)
(assert (= n293 (+ n263 n266)))
(declare-fun n294 () Int)
(assert (= n294 (+ n267 n270)))
(declare-fun n295 () Int)
(assert (= n295 (+ n271 n274)))
(declare-fun n296 () Int)
(assert (= n296 (+ n275 n278)))
(declare-fun n297 () Int)
(assert (= n297 (+ n279 n282)))
(declare-fun n298 () Int)
(assert (= n298 (+ n283 n286)))
(declare-fun n299 () Int)
(assert (= n299 (+ n287 n290)))
(declare-fun n300 () Int)
(assert (= n300 (* n9 n63)))
(declare-fun n301 () Int)
(assert (= n301 (* n10 n64)))
(declare-fun n302 () Int)
(assert (= n302 (* n11 n65)))
(declare-fun n303 () Int)
(assert (= n303 (+ n301 n302)))
(declare-fun n304 () Int)
(assert (= n304 (+ n300 n303)))
(declare-fun n305 () Int)
(assert (= n305 (+ n8 n304)))
(declare-fun n306 () Int)
(assert (= n306 (* n9 n102)))
(declare-fun n307 () Int)
(assert (= n307 (* n10 n105)))
(declare-fun n308 () Int)
(assert (= n308 (* n11 n108)))
(declare-fun n309 () Int)
(assert (= n309 (+ n307 n308)))
(declare-fun n310 () Int)
(assert (= n310 (* n9 n103)))
(declare-fun n311 () Int)
(assert (= n311 (* n10 n106)))
(declare-fun n312 () Int)
(assert (= n312 (* n11 n109)))
(declare-fun n313 () Int)
(assert (= n313 (+ n311 n312)))
(declare-fun n314 () Int)
(assert (= n314 (* n9 n104)))
(declare-fun n315 () Int)
(assert (= n315 (* n10 n107)))
(declare-fun n316 () Int)
(assert (= n316 (* n11 n110)))
(declare-fun n317 () Int)
(assert (= n317 (+ n315 n316)))
(declare-fun n318 () Int)
(assert (= n318 (+ n306 n309)))
(declare-fun n319 () Int)
(assert (= n319 (+ n310 n313)))
(declare-fun n320 () Int)
(assert (= n320 (+ n314 n317)))
(declare-fun n321 () Int)
(assert (= n321 (* n102 n252)))
(declare-fun n322 () Int)
(assert (= n322 (* n103 n253)))
(declare-fun n323 () Int)
(assert (= n323 (* n104 n254)))
(declare-fun n324 () Int)
(assert (= n324 (+ n322 n323)))
(declare-fun n325 () Int)
(assert (= n325 (* n105 n252)))
(declare-fun n326 () Int)
(assert (= n326 (* n106 n253)))
(declare-fun n327 () Int)
(assert (= n327 (* n107 n254)))
(declare-fun n328 () Int)
(assert (= n328 (+ n326 n327)))
(declare-fun n329 () Int)
(assert (= n329 (* n108 n252)))
(declare-fun n330 () Int)
(assert (= n330 (* n109 n253)))
(declare-fun n331 () Int)
(assert (= n331 (* n110 n254)))
(declare-fun n332 () Int)
(assert (= n332 (+ n330 n331)))
(declare-fun n333 () Int)
(assert (= n333 (+ n321 n324)))
(declare-fun n334 () Int)
(assert (= n334 (+ n325 n328)))
(declare-fun n335 () Int)
(assert (= n335 (+ n329 n332)))
(declare-fun n336 () Int)
(assert (= n336 (+ n63 n333)))
(declare-fun n337 () Int)
(assert (= n337 (+ n64 n334)))
(declare-fun n338 () Int)
(assert (= n338 (+ n65 n335)))
(declare-fun n339 () Int)
(assert (= n339 (* n102 n291)))
(declare-fun n340 () Int)
(assert (= n340 (* n103 n294)))
(declare-fun n341 () Int)
(assert (= n341 (* n104 n297)))
(declare-fun n342 () Int)
(assert (= n342 (+ n340 n341)))
(declare-fun n343 () Int)
(assert (= n343 (* n102 n292)))
(declare-fun n344 () Int)
(assert (= n344 (* n103 n295)))
(declare-fun n345 () Int)
(assert (= n345 (* n104 n298)))
(declare-fun n346 () Int)
(assert (= n346 (+ n344 n345)))
(declare-fun n347 () Int)
(assert (= n347 (* n102 n293)))
(declare-fun n348 () Int)
(assert (= n348 (* n103 n296)))
(declare-fun n349 () Int)
(assert (= n349 (* n104 n299)))
(declare-fun n350 () Int)
(assert (= n350 (+ n348 n349)))
(declare-fun n351 () Int)
(assert (= n351 (* n105 n291)))
(declare-fun n352 () Int)
(assert (= n352 (* n106 n294)))
(declare-fun n353 () Int)
(assert (= n353 (* n107 n297)))
(declare-fun n354 () Int)
(assert (= n354 (+ n352 n353)))
(declare-fun n355 () Int)
(assert (= n355 (* n105 n292)))
(declare-fun n356 () Int)
(assert (= n356 (* n106 n295)))
(declare-fun n357 () Int)
(assert (= n357 (* n107 n298)))
(declare-fun n358 () Int)
(assert (= n358 (+ n356 n357)))
(declare-fun n359 () Int)
(assert (= n359 (* n105 n293)))
(declare-fun n360 () Int)
(assert (= n360 (* n106 n296)))
(declare-fun n361 () Int)
(assert (= n361 (* n107 n299)))
(declare-fun n362 () Int)
(assert (= n362 (+ n360 n361)))
(declare-fun n363 () Int)
(assert (= n363 (* n108 n291)))
(declare-fun n364 () Int)
(assert (= n364 (* n109 n294)))
(declare-fun n365 () Int)
(assert (= n365 (* n110 n297)))
(declare-fun n366 () Int)
(assert (= n366 (+ n364 n365)))
(declare-fun n367 () Int)
(assert (= n367 (* n108 n292)))
(declare-fun n368 () Int)
(assert (= n368 (* n109 n295)))
(declare-fun n369 () Int)
(assert (= n369 (* n110 n298)))
(declare-fun n370 () Int)
(assert (= n370 (+ n368 n369)))
(declare-fun n371 () Int)
(assert (= n371 (* n108 n293)))
(declare-fun n372 () Int)
(assert (= n372 (* n109 n296)))
(declare-fun n373 () Int)
(assert (= n373 (* n110 n299)))
(declare-fun n374 () Int)
(assert (= n374 (+ n372 n373)))
(declare-fun n375 () Int)
(assert (= n375 (+ n339 n342)))
(declare-fun n376 () Int)
(assert (= n376 (+ n343 n346)))
(declare-fun n377 () Int)
(assert (= n377 (+ n347 n350)))
(declare-fun n378 () Int)
(assert (= n378 (+ n351 n354)))
(declare-fun n379 () Int)
(assert (= n379 (+ n355 n358)))
(declare-fun n380 () Int)
(assert (= n380 (+ n359 n362)))
(declare-fun n381 () Int)
(assert (= n381 (+ n363 n366)))
(declare-fun n382 () Int)
(assert (= n382 (+ n367 n370)))
(declare-fun n383 () Int)
(assert (= n383 (+ n371 n374)))
(declare-fun n384 () Int)
(assert (= n384 (* n291 n189)))
(declare-fun n385 () Int)
(assert (= n385 (* n292 n190)))
(declare-fun n386 () Int)
(assert (= n386 (* n293 n191)))
(declare-fun n387 () Int)
(assert (= n387 (+ n385 n386)))
(declare-fun n388 () Int)
(assert (= n388 (* n294 n189)))
(declare-fun n389 () Int)
(assert (= n389 (* n295 n190)))
(declare-fun n390 () Int)
(assert (= n390 (* n296 n191)))
(declare-fun n391 () Int)
(assert (= n391 (+ n389 n390)))
(declare-fun n392 () Int)
(assert (= n392 (* n297 n189)))
(declare-fun n393 () Int)
(assert (= n393 (* n298 n190)))
(declare-fun n394 () Int)
(assert (= n394 (* n299 n191)))
(declare-fun n395 () Int)
(assert (= n395 (+ n393 n394)))
(declare-fun n396 () Int)
(assert (= n396 (+ n384 n387)))
(declare-fun n397 () Int)
(assert (= n397 (+ n388 n391)))
(declare-fun n398 () Int)
(assert (= n398 (+ n392 n395)))
(declare-fun n399 () Int)
(assert (= n399 (+ n252 n396)))
(declare-fun n400 () Int)
(assert (= n400 (+ n253 n397)))
(declare-fun n401 () Int)
(assert (= n401 (+ n254 n398)))
(declare-fun n402 () Int)
(assert (= n402 (* n291 n228)))
(declare-fun n403 () Int)
(assert (= n403 (* n292 n231)))
(declare-fun n404 () Int)
(assert (= n404 (* n293 n234)))
(declare-fun n405 () Int)
(assert (= n405 (+ n403 n404)))
(declare-fun n406 () Int)
(assert (= n406 (* n291 n229)))
(declare-fun n407 () Int)
(assert (= n407 (* n292 n232)))
(declare-fun n408 () Int)
(assert (= n408 (* n293 n235)))
(declare-fun n409 () Int)
(assert (= n409 (+ n407 n408)))
(declare-fun n410 () Int)
(assert (= n410 (* n291 n230)))
(declare-fun n411 () Int)
(assert (= n411 (* n292 n233)))
(declare-fun n412 () Int)
(assert (= n412 (* n293 n236)))
(declare-fun n413 () Int)
(assert (= n413 (+ n411 n412)))
(declare-fun n414 () Int)
(assert (= n414 (* n294 n228)))
(declare-fun n415 () Int)
(assert (= n415 (* n295 n231)))
(declare-fun n416 () Int)
(assert (= n416 (* n296 n234)))
(declare-fun n417 () Int)
(assert (= n417 (+ n415 n416)))
(declare-fun n418 () Int)
(assert (= n418 (* n294 n229)))
(declare-fun n419 () Int)
(assert (= n419 (* n295 n232)))
(declare-fun n420 () Int)
(assert (= n420 (* n296 n235)))
(declare-fun n421 () Int)
(assert (= n421 (+ n419 n420)))
(declare-fun n422 () Int)
(assert (= n422 (* n294 n230)))
(declare-fun n423 () Int)
(assert (= n423 (* n295 n233)))
(declare-fun n424 () Int)
(assert (= n424 (* n296 n236)))
(declare-fun n425 () Int)
(assert (= n425 (+ n423 n424)))
(declare-fun n426 () Int)
(assert (= n426 (* n297 n228)))
(declare-fun n427 () Int)
(assert (= n427 (* n298 n231)))
(declare-fun n428 () Int)
(assert (= n428 (* n299 n234)))
(declare-fun n429 () Int)
(assert (= n429 (+ n427 n428)))
(declare-fun n430 () Int)
(assert (= n430 (* n297 n229)))
(declare-fun n431 () Int)
(assert (= n431 (* n298 n232)))
(declare-fun n432 () Int)
(assert (= n432 (* n299 n235)))
(declare-fun n433 () Int)
(assert (= n433 (+ n431 n432)))
(declare-fun n434 () Int)
(assert (= n434 (* n297 n230)))
(declare-fun n435 () Int)
(assert (= n435 (* n298 n233)))
(declare-fun n436 () Int)
(assert (= n436 (* n299 n236)))
(declare-fun n437 () Int)
(assert (= n437 (+ n435 n436)))
(declare-fun n438 () Int)
(assert (= n438 (+ n402 n405)))
(declare-fun n439 () Int)
(assert (= n439 (+ n406 n409)))
(declare-fun n440 () Int)
(assert (= n440 (+ n410 n413)))
(declare-fun n441 () Int)
(assert (= n441 (+ n414 n417)))
(declare-fun n442 () Int)
(assert (= n442 (+ n418 n421)))
(declare-fun n443 () Int)
(assert (= n443 (+ n422 n425)))
(declare-fun n444 () Int)
(assert (= n444 (+ n426 n429)))
(declare-fun n445 () Int)
(assert (= n445 (+ n430 n433)))
(declare-fun n446 () Int)
(assert (= n446 (+ n434 n437)))
(declare-fun n447 () Int)
(assert (= n447 (* n375 n399)))
(declare-fun n448 () Int)
(assert (= n448 (* n376 n400)))
(declare-fun n449 () Int)
(assert (= n449 (* n377 n401)))
(declare-fun n450 () Int)
(assert (= n450 (+ n448 n449)))
(declare-fun n451 () Int)
(assert (= n451 (* n378 n399)))
(declare-fun n452 () Int)
(assert (= n452 (* n379 n400)))
(declare-fun n453 () Int)
(assert (= n453 (* n380 n401)))
(declare-fun n454 () Int)
(assert (= n454 (+ n452 n453)))
(declare-fun n455 () Int)
(assert (= n455 (* n381 n399)))
(declare-fun n456 () Int)
(assert (= n456 (* n382 n400)))
(declare-fun n457 () Int)
(assert (= n457 (* n383 n401)))
(declare-fun n458 () Int)
(assert (= n458 (+ n456 n457)))
(declare-fun n459 () Int)
(assert (= n459 (+ n447 n450)))
(declare-fun n460 () Int)
(assert (= n460 (+ n451 n454)))
(declare-fun n461 () Int)
(assert (= n461 (+ n455 n458)))
(declare-fun n462 () Int)
(assert (= n462 (+ n336 n459)))
(declare-fun n463 () Int)
(assert (= n463 (+ n337 n460)))
(declare-fun n464 () Int)
(assert (= n464 (+ n338 n461)))
(declare-fun n465 () Int)
(assert (= n465 (* n375 n438)))
(declare-fun n466 () Int)
(assert (= n466 (* n376 n441)))
(declare-fun n467 () Int)
(assert (= n467 (* n377 n444)))
(declare-fun n468 () Int)
(assert (= n468 (+ n466 n467)))
(declare-fun n469 () Int)
(assert (= n469 (* n375 n439)))
(declare-fun n470 () Int)
(assert (= n470 (* n376 n442)))
(declare-fun n471 () Int)
(assert (= n471 (* n377 n445)))
(declare-fun n472 () Int)
(assert (= n472 (+ n470 n471)))
(declare-fun n473 () Int)
(assert (= n473 (* n375 n440)))
(declare-fun n474 () Int)
(assert (= n474 (* n376 n443)))
(declare-fun n475 () Int)
(assert (= n475 (* n377 n446)))
(declare-fun n476 () Int)
(assert (= n476 (+ n474 n475)))
(declare-fun n477 () Int)
(assert (= n477 (* n378 n438)))
(declare-fun n478 () Int)
(assert (= n478 (* n379 n441)))
(declare-fun n479 () Int)
(assert (= n479 (* n380 n444)))
(declare-fun n480 () Int)
(assert (= n480 (+ n478 n479)))
(declare-fun n481 () Int)
(assert (= n481 (* n378 n439)))
(declare-fun n482 () Int)
(assert (= n482 (* n379 n442)))
(declare-fun n483 () Int)
(assert (= n483 (* n380 n445)))
(declare-fun n484 () Int)
(assert (= n484 (+ n482 n483)))
(declare-fun n485 () Int)
(assert (= n485 (* n378 n440)))
(declare-fun n486 () Int)
(assert (= n486 (* n379 n443)))
(declare-fun n487 () Int)
(assert (= n487 (* n380 n446)))
(declare-fun n488 () Int)
(assert (= n488 (+ n486 n487)))
(declare-fun n489 () Int)
(assert (= n489 (* n381 n438)))
(declare-fun n490 () Int)
(assert (= n490 (* n382 n441)))
(declare-fun n491 () Int)
(assert (= n491 (* n383 n444)))
(declare-fun n492 () Int)
(assert (= n492 (+ n490 n491)))
(declare-fun n493 () Int)
(assert (= n493 (* n381 n439)))
(declare-fun n494 () Int)
(assert (= n494 (* n382 n442)))
(declare-fun n495 () Int)
(assert (= n495 (* n383 n445)))
(declare-fun n496 () Int)
(assert (= n496 (+ n494 n495)))
(declare-fun n497 () Int)
(assert (= n497 (* n381 n440)))
(declare-fun n498 () Int)
(assert (= n498 (* n382 n443)))
(declare-fun n499 () Int)
(assert (= n499 (* n383 n446)))
(declare-fun n500 () Int)
(assert (= n500 (+ n498 n499)))
(declare-fun n501 () Int)
(assert (= n501 (+ n465 n468)))
(declare-fun n502 () Int)
(assert (= n502 (+ n469 n472)))
(declare-fun n503 () Int)
(assert (= n503 (+ n473 n476)))
(declare-fun n504 () Int)
(assert (= n504 (+ n477 n480)))
(declare-fun n505 () Int)
(assert (= n505 (+ n481 n484)))
(declare-fun n506 () Int)
(assert (= n506 (+ n485 n488)))
(declare-fun n507 () Int)
(assert (= n507 (+ n489 n492)))
(declare-fun n508 () Int)
(assert (= n508 (+ n493 n496)))
(declare-fun n509 () Int)
(assert (= n509 (+ n497 n500)))
(declare-fun n510 () Int)
(assert (= n510 (* n318 n63)))
(declare-fun n511 () Int)
(assert (= n511 (* n319 n64)))
(declare-fun n512 () Int)
(assert (= n512 (* n320 n65)))
(declare-fun n513 () Int)
(assert (= n513 (+ n511 n512)))
(declare-fun n514 () Int)
(assert (= n514 (+ n510 n513)))
(declare-fun n515 () Int)
(assert (= n515 (+ n305 n514)))
(declare-fun n516 () Int)
(assert (= n516 (* n318 n102)))
(declare-fun n517 () Int)
(assert (= n517 (* n319 n105)))
(declare-fun n518 () Int)
(assert (= n518 (* n320 n108)))
(declare-fun n519 () Int)
(assert (= n519 (+ n517 n518)))
(declare-fun n520 () Int)
(assert (= n520 (* n318 n103)))
(declare-fun n521 () Int)
(assert (= n521 (* n319 n106)))
(declare-fun n522 () Int)
(assert (= n522 (* n320 n109)))
(declare-fun n523 () Int)
(assert (= n523 (+ n521 n522)))
(declare-fun n524 () Int)
(assert (= n524 (* n318 n104)))
(declare-fun n525 () Int)
(assert (= n525 (* n319 n107)))
(declare-fun n526 () Int)
(assert (= n526 (* n320 n110)))
(declare-fun n527 () Int)
(assert (= n527 (+ n525 n526)))
(declare-fun n528 () Int)
(assert (= n528 (+ n516 n519)))
(declare-fun n529 () Int)
(assert (= n529 (+ n520 n523)))
(declare-fun n530 () Int)
(assert (= n530 (+ n524 n527)))
(declare-fun n531 () Int)
(assert (= n531 (* n318 n126)))
(declare-fun n532 () Int)
(assert (= n532 (* n319 n127)))
(declare-fun n533 () Int)
(assert (= n533 (* n320 n128)))
(declare-fun n534 () Int)
(assert (= n534 (+ n532 n533)))
(declare-fun n535 () Int)
(assert (= n535 (+ n531 n534)))
(declare-fun n536 () Int)
(assert (= n536 (+ n305 n535)))
(declare-fun n537 () Int)
(assert (= n537 (* n318 n165)))
(declare-fun n538 () Int)
(assert (= n538 (* n319 n168)))
(declare-fun n539 () Int)
(assert (= n539 (* n320 n171)))
(declare-fun n540 () Int)
(assert (= n540 (+ n538 n539)))
(declare-fun n541 () Int)
(assert (= n541 (* n318 n166)))
(declare-fun n542 () Int)
(assert (= n542 (* n319 n169)))
(declare-fun n543 () Int)
(assert (= n543 (* n320 n172)))
(declare-fun n544 () Int)
(assert (= n544 (+ n542 n543)))
(declare-fun n545 () Int)
(assert (= n545 (* n318 n167)))
(declare-fun n546 () Int)
(assert (= n546 (* n319 n170)))
(declare-fun n547 () Int)
(assert (= n547 (* n320 n173)))
(declare-fun n548 () Int)
(assert (= n548 (+ n546 n547)))
(declare-fun n549 () Int)
(assert (= n549 (+ n537 n540)))
(declare-fun n550 () Int)
(assert (= n550 (+ n541 n544)))
(declare-fun n551 () Int)
(assert (= n551 (+ n545 n548)))
(assert (>= n515 n536))
(assert (>= n528 n549))
(assert (>= n529 n550))
(assert (>= n530 n551))
(declare-fun n552 () Int)
(assert (= n552 (* n228 n63)))
(declare-fun n553 () Int)
(assert (= n553 (* n229 n64)))
(declare-fun n554 () Int)
(assert (= n554 (* n230 n65)))
(declare-fun n555 () Int)
(assert (= n555 (+ n553 n554)))
(declare-fun n556 () Int)
(assert (= n556 (* n231 n63)))
(declare-fun n557 () Int)
(assert (= n557 (* n232 n64)))
(declare-fun n558 () Int)
(assert (= n558 (* n233 n65)))
(declare-fun n559 () Int)
(assert (= n559 (+ n557 n558)))
(declare-fun n560 () Int)
(assert (= n560 (* n234 n63)))
(declare-fun n561 () Int)
(assert (= n561 (* n235 n64)))
(declare-fun n562 () Int)
(assert (= n562 (* n236 n65)))
(declare-fun n563 () Int)
(assert (= n563 (+ n561 n562)))
(declare-fun n564 () Int)
(assert (= n564 (+ n552 n555)))
(declare-fun n565 () Int)
(assert (= n565 (+ n556 n559)))
(declare-fun n566 () Int)
(assert (= n566 (+ n560 n563)))
(declare-fun n567 () Int)
(assert (= n567 (+ n189 n564)))
(declare-fun n568 () Int)
(assert (= n568 (+ n190 n565)))
(declare-fun n569 () Int)
(assert (= n569 (+ n191 n566)))
(declare-fun n570 () Int)
(assert (= n570 (* n228 n102)))
(declare-fun n571 () Int)
(assert (= n571 (* n229 n105)))
(declare-fun n572 () Int)
(assert (= n572 (* n230 n108)))
(declare-fun n573 () Int)
(assert (= n573 (+ n571 n572)))
(declare-fun n574 () Int)
(assert (= n574 (* n228 n103)))
(declare-fun n575 () Int)
(assert (= n575 (* n229 n106)))
(declare-fun n576 () Int)
(assert (= n576 (* n230 n109)))
(declare-fun n577 () Int)
(assert (= n577 (+ n575 n576)))
(declare-fun n578 () Int)
(assert (= n578 (* n228 n104)))
(declare-fun n579 () Int)
(assert (= n579 (* n229 n107)))
(declare-fun n580 () Int)
(assert (= n580 (* n230 n110)))
(declare-fun n581 () Int)
(assert (= n581 (+ n579 n580)))
(declare-fun n582 () Int)
(assert (= n582 (* n231 n102)))
(declare-fun n583 () Int)
(assert (= n583 (* n232 n105)))
(declare-fun n584 () Int)
(assert (= n584 (* n233 n108)))
(declare-fun n585 () Int)
(assert (= n585 (+ n583 n584)))
(declare-fun n586 () Int)
(assert (= n586 (* n231 n103)))
(declare-fun n587 () Int)
(assert (= n587 (* n232 n106)))
(declare-fun n588 () Int)
(assert (= n588 (* n233 n109)))
(declare-fun n589 () Int)
(assert (= n589 (+ n587 n588)))
(declare-fun n590 () Int)
(assert (= n590 (* n231 n104)))
(declare-fun n591 () Int)
(assert (= n591 (* n232 n107)))
(declare-fun n592 () Int)
(assert (= n592 (* n233 n110)))
(declare-fun n593 () Int)
(assert (= n593 (+ n591 n592)))
(declare-fun n594 () Int)
(assert (= n594 (* n234 n102)))
(declare-fun n595 () Int)
(assert (= n595 (* n235 n105)))
(declare-fun n596 () Int)
(assert (= n596 (* n236 n108)))
(declare-fun n597 () Int)
(assert (= n597 (+ n595 n596)))
(declare-fun n598 () Int)
(assert (= n598 (* n234 n103)))
(declare-fun n599 () Int)
(assert (= n599 (* n235 n106)))
(declare-fun n600 () Int)
(assert (= n600 (* n236 n109)))
(declare-fun n601 () Int)
(assert (= n601 (+ n599 n600)))
(declare-fun n602 () Int)
(assert (= n602 (* n234 n104)))
(declare-fun n603 () Int)
(assert (= n603 (* n235 n107)))
(declare-fun n604 () Int)
(assert (= n604 (* n236 n110)))
(declare-fun n605 () Int)
(assert (= n605 (+ n603 n604)))
(declare-fun n606 () Int)
(assert (= n606 (+ n570 n573)))
(declare-fun n607 () Int)
(assert (= n607 (+ n574 n577)))
(declare-fun n608 () Int)
(assert (= n608 (+ n578 n581)))
(declare-fun n609 () Int)
(assert (= n609 (+ n582 n585)))
(declare-fun n610 () Int)
(assert (= n610 (+ n586 n589)))
(declare-fun n611 () Int)
(assert (= n611 (+ n590 n593)))
(declare-fun n612 () Int)
(assert (= n612 (+ n594 n597)))
(declare-fun n613 () Int)
(assert (= n613 (+ n598 n601)))
(declare-fun n614 () Int)
(assert (= n614 (+ n602 n605)))
(declare-fun n615 () Int)
(assert (= n615 (* n501 n126)))
(declare-fun n616 () Int)
(assert (= n616 (* n502 n127)))
(declare-fun n617 () Int)
(assert (= n617 (* n503 n128)))
(declare-fun n618 () Int)
(assert (= n618 (+ n616 n617)))
(declare-fun n619 () Int)
(assert (= n619 (* n504 n126)))
(declare-fun n620 () Int)
(assert (= n620 (* n505 n127)))
(declare-fun n621 () Int)
(assert (= n621 (* n506 n128)))
(declare-fun n622 () Int)
(assert (= n622 (+ n620 n621)))
(declare-fun n623 () Int)
(assert (= n623 (* n507 n126)))
(declare-fun n624 () Int)
(assert (= n624 (* n508 n127)))
(declare-fun n625 () Int)
(assert (= n625 (* n509 n128)))
(declare-fun n626 () Int)
(assert (= n626 (+ n624 n625)))
(declare-fun n627 () Int)
(assert (= n627 (+ n615 n618)))
(declare-fun n628 () Int)
(assert (= n628 (+ n619 n622)))
(declare-fun n629 () Int)
(assert (= n629 (+ n623 n626)))
(declare-fun n630 () Int)
(assert (= n630 (+ n462 n627)))
(declare-fun n631 () Int)
(assert (= n631 (+ n463 n628)))
(declare-fun n632 () Int)
(assert (= n632 (+ n464 n629)))
(declare-fun n633 () Int)
(assert (= n633 (* n501 n165)))
(declare-fun n634 () Int)
(assert (= n634 (* n502 n168)))
(declare-fun n635 () Int)
(assert (= n635 (* n503 n171)))
(declare-fun n636 () Int)
(assert (= n636 (+ n634 n635)))
(declare-fun n637 () Int)
(assert (= n637 (* n501 n166)))
(declare-fun n638 () Int)
(assert (= n638 (* n502 n169)))
(declare-fun n639 () Int)
(assert (= n639 (* n503 n172)))
(declare-fun n640 () Int)
(assert (= n640 (+ n638 n639)))
(declare-fun n641 () Int)
(assert (= n641 (* n501 n167)))
(declare-fun n642 () Int)
(assert (= n642 (* n502 n170)))
(declare-fun n643 () Int)
(assert (= n643 (* n503 n173)))
(declare-fun n644 () Int)
(assert (= n644 (+ n642 n643)))
(declare-fun n645 () Int)
(assert (= n645 (* n504 n165)))
(declare-fun n646 () Int)
(assert (= n646 (* n505 n168)))
(declare-fun n647 () Int)
(assert (= n647 (* n506 n171)))
(declare-fun n648 () Int)
(assert (= n648 (+ n646 n647)))
(declare-fun n649 () Int)
(assert (= n649 (* n504 n166)))
(declare-fun n650 () Int)
(assert (= n650 (* n505 n169)))
(declare-fun n651 () Int)
(assert (= n651 (* n506 n172)))
(declare-fun n652 () Int)
(assert (= n652 (+ n650 n651)))
(declare-fun n653 () Int)
(assert (= n653 (* n504 n167)))
(declare-fun n654 () Int)
(assert (= n654 (* n505 n170)))
(declare-fun n655 () Int)
(assert (= n655 (* n506 n173)))
(declare-fun n656 () Int)
(assert (= n656 (+ n654 n655)))
(declare-fun n657 () Int)
(assert (= n657 (* n507 n165)))
(declare-fun n658 () Int)
(assert (= n658 (* n508 n168)))
(declare-fun n659 () Int)
(assert (= n659 (* n509 n171)))
(declare-fun n660 () Int)
(assert (= n660 (+ n658 n659)))
(declare-fun n661 () Int)
(assert (= n661 (* n507 n166)))
(declare-fun n662 () Int)
(assert (= n662 (* n508 n169)))
(declare-fun n663 () Int)
(assert (= n663 (* n509 n172)))
(declare-fun n664 () Int)
(assert (= n664 (+ n662 n663)))
(declare-fun n665 () Int)
(assert (= n665 (* n507 n167)))
(declare-fun n666 () Int)
(assert (= n666 (* n508 n170)))
(declare-fun n667 () Int)
(assert (= n667 (* n509 n173)))
(declare-fun n668 () Int)
(assert (= n668 (+ n666 n667)))
(declare-fun n669 () Int)
(assert (= n669 (+ n633 n636)))
(declare-fun n670 () Int)
(assert (= n670 (+ n637 n640)))
(declare-fun n671 () Int)
(assert (= n671 (+ n641 n644)))
(declare-fun n672 () Int)
(assert (= n672 (+ n645 n648)))
(declare-fun n673 () Int)
(assert (= n673 (+ n649 n652)))
(declare-fun n674 () Int)
(assert (= n674 (+ n653 n656)))
(declare-fun n675 () Int)
(assert (= n675 (+ n657 n660)))
(declare-fun n676 () Int)
(assert (= n676 (+ n661 n664)))
(declare-fun n677 () Int)
(assert (= n677 (+ n665 n668)))
(assert (>= n567 n630))
(assert (>= n568 n631))
(assert (>= n569 n632))
(assert (>= n606 n669))
(assert (>= n607 n670))
(assert (>= n608 n671))
(assert (>= n609 n672))
(assert (>= n610 n673))
(assert (>= n611 n674))
(assert (>= n612 n675))
(assert (>= n613 n676))
(assert (>= n614 n677))
(assert (> n515 n536))
(check-sat)
(exit)
